p edge 100 504
e 1 2
e 1 10
e 1 18
e 1 45
e 1 51
e 1 52
e 1 85
e 2 3
e 2 12
e 2 20
e 2 23
e 2 28
e 2 38
e 2 42
e 2 48
e 2 71
e 2 88
e 3 4
e 3 13
e 3 16
e 3 20
e 3 35
e 3 43
e 3 50
e 3 55
e 3 58
e 3 68
e 3 75
e 3 76
e 3 88
e 3 93
e 3 100
e 4 12
e 4 16
e 4 19
e 4 39
e 4 57
e 4 98
e 5 17
e 5 21
e 5 28
e 5 47
e 5 50
e 5 56
e 5 59
e 5 66
e 5 69
e 5 76
e 5 77
e 5 84
e 5 96
e 5 97
e 6 30
e 6 34
e 6 37
e 6 42
e 6 47
e 6 58
e 6 61
e 6 67
e 6 84
e 6 87
e 6 100
e 7 16
e 7 24
e 7 37
e 7 45
e 7 50
e 7 52
e 7 67
e 7 83
e 7 85
e 7 86
e 8 13
e 8 19
e 8 22
e 8 25
e 8 35
e 8 40
e 8 56
e 8 59
e 8 72
e 8 84
e 8 91
e 9 21
e 9 39
e 9 42
e 9 56
e 9 75
e 9 89
e 9 99
e 10 40
e 10 52
e 10 55
e 10 56
e 10 62
e 10 91
e 10 96
e 11 15
e 11 18
e 11 23
e 11 26
e 11 35
e 11 96
e 12 18
e 12 21
e 12 22
e 12 39
e 12 81
e 12 89
e 13 23
e 13 32
e 13 42
e 13 45
e 13 47
e 13 57
e 13 69
e 13 90
e 14 17
e 14 19
e 14 26
e 14 37
e 14 56
e 14 63
e 14 75
e 14 77
e 14 78
e 14 88
e 14 89
e 15 20
e 15 28
e 15 58
e 15 64
e 15 65
e 15 71
e 15 72
e 15 79
e 15 81
e 15 88
e 15 93
e 16 20
e 16 21
e 16 37
e 16 44
e 16 46
e 16 50
e 16 61
e 16 74
e 16 80
e 16 81
e 16 96
e 17 21
e 17 32
e 17 45
e 17 51
e 17 79
e 17 92
e 18 23
e 18 55
e 18 59
e 18 62
e 18 63
e 19 28
e 19 31
e 19 34
e 19 40
e 19 47
e 19 48
e 19 60
e 19 61
e 19 62
e 19 71
e 19 72
e 19 75
e 19 88
e 19 89
e 19 91
e 20 46
e 20 49
e 20 53
e 20 57
e 20 69
e 20 72
e 20 87
e 20 91
e 20 93
e 21 23
e 21 37
e 21 59
e 21 70
e 21 89
e 21 93
e 21 100
e 22 26
e 22 28
e 22 34
e 22 36
e 22 43
e 22 53
e 22 58
e 22 63
e 23 34
e 23 40
e 23 46
e 23 65
e 23 72
e 23 82
e 23 89
e 23 96
e 24 27
e 24 29
e 24 35
e 24 39
e 24 46
e 24 47
e 24 58
e 24 61
e 25 31
e 25 40
e 25 48
e 25 52
e 25 60
e 25 78
e 25 79
e 25 95
e 26 28
e 26 29
e 26 44
e 26 54
e 26 60
e 26 70
e 26 72
e 26 73
e 26 86
e 26 88
e 26 90
e 26 97
e 27 29
e 27 32
e 27 35
e 27 39
e 27 47
e 27 52
e 27 71
e 27 88
e 27 93
e 27 98
e 28 44
e 28 54
e 28 55
e 28 59
e 28 67
e 28 79
e 28 84
e 29 42
e 29 51
e 29 52
e 29 69
e 29 72
e 29 93
e 30 43
e 30 48
e 30 59
e 30 64
e 30 66
e 30 72
e 31 44
e 31 51
e 31 54
e 31 58
e 31 62
e 31 73
e 31 97
e 32 42
e 32 49
e 32 52
e 32 53
e 32 59
e 32 74
e 32 82
e 32 95
e 32 100
e 33 37
e 33 47
e 33 50
e 33 63
e 33 65
e 33 76
e 33 83
e 33 85
e 33 96
e 34 40
e 34 41
e 34 43
e 34 84
e 34 92
e 34 93
e 35 36
e 35 39
e 35 47
e 35 48
e 35 49
e 35 71
e 35 81
e 35 83
e 35 100
e 36 41
e 36 50
e 36 57
e 36 61
e 36 88
e 36 92
e 37 49
e 37 59
e 37 61
e 37 76
e 37 79
e 37 80
e 37 83
e 37 86
e 38 46
e 38 49
e 38 51
e 38 72
e 38 74
e 38 75
e 38 76
e 38 83
e 38 90
e 39 65
e 39 77
e 39 84
e 39 90
e 40 52
e 40 59
e 40 70
e 40 79
e 40 95
e 40 97
e 41 46
e 41 52
e 41 79
e 41 99
e 42 47
e 42 56
e 42 57
e 42 60
e 42 74
e 42 75
e 42 87
e 42 91
e 43 51
e 43 53
e 43 78
e 43 86
e 43 99
e 43 100
e 44 58
e 44 64
e 44 74
e 44 83
e 44 86
e 45 63
e 45 64
e 45 71
e 45 80
e 45 83
e 45 86
e 45 88
e 45 91
e 45 92
e 46 81
e 46 89
e 47 62
e 47 65
e 47 76
e 47 81
e 47 88
e 48 64
e 48 65
e 48 69
e 48 75
e 48 88
e 48 89
e 49 50
e 49 52
e 49 59
e 49 67
e 49 69
e 49 87
e 50 51
e 50 55
e 50 67
e 50 74
e 50 91
e 50 95
e 51 67
e 51 71
e 51 92
e 51 96
e 52 60
e 52 62
e 52 68
e 52 78
e 52 96
e 53 60
e 53 91
e 54 55
e 54 78
e 54 79
e 54 81
e 54 87
e 55 68
e 55 86
e 56 62
e 56 66
e 56 73
e 56 74
e 56 80
e 56 81
e 57 60
e 57 74
e 57 76
e 57 90
e 58 64
e 58 70
e 58 73
e 58 75
e 58 82
e 58 92
e 58 93
e 58 97
e 59 61
e 59 93
e 59 95
e 59 96
e 60 67
e 60 76
e 60 86
e 61 72
e 61 73
e 61 83
e 62 65
e 62 76
e 62 82
e 63 73
e 63 84
e 63 97
e 64 75
e 64 78
e 64 99
e 65 71
e 65 82
e 65 89
e 66 71
e 66 75
e 66 87
e 66 92
e 66 96
e 66 99
e 67 81
e 67 82
e 67 84
e 68 79
e 68 85
e 68 96
e 68 97
e 69 81
e 69 86
e 69 87
e 70 75
e 70 76
e 71 74
e 71 81
e 71 94
e 72 100
e 73 84
e 73 88
e 73 90
e 73 93
e 73 99
e 75 88
e 76 80
e 76 86
e 76 91
e 77 84
e 78 79
e 78 81
e 80 95
e 81 82
e 81 84
e 83 98
e 84 86
e 84 93
e 84 97
e 84 99
e 85 94
e 85 98
e 86 92
e 89 93
e 92 95
e 92 96
e 95 97
e 95 100
